p edge 100 1485
e 1 2
e 1 4
e 1 11
e 1 15
e 1 17
e 1 20
e 1 26
e 1 32
e 1 34
e 1 37
e 1 38
e 1 42
e 1 46
e 1 51
e 1 52
e 1 53
e 1 54
e 1 56
e 1 60
e 1 62
e 1 63
e 1 65
e 1 69
e 1 70
e 1 81
e 1 85
e 1 91
e 1 96
e 1 99
e 2 3
e 2 4
e 2 5
e 2 9
e 2 11
e 2 12
e 2 15
e 2 18
e 2 23
e 2 31
e 2 36
e 2 37
e 2 40
e 2 46
e 2 51
e 2 61
e 2 64
e 2 65
e 2 68
e 2 75
e 2 76
e 2 77
e 2 81
e 2 82
e 2 83
e 2 84
e 2 86
e 2 89
e 2 91
e 2 93
e 2 97
e 3 5
e 3 8
e 3 9
e 3 10
e 3 13
e 3 15
e 3 22
e 3 23
e 3 27
e 3 29
e 3 36
e 3 41
e 3 45
e 3 47
e 3 48
e 3 57
e 3 58
e 3 61
e 3 62
e 3 63
e 3 64
e 3 70
e 3 74
e 3 75
e 3 78
e 3 80
e 3 83
e 3 84
e 3 85
e 3 94
e 3 96
e 3 100
e 4 5
e 4 8
e 4 18
e 4 22
e 4 23
e 4 25
e 4 31
e 4 32
e 4 34
e 4 39
e 4 40
e 4 43
e 4 44
e 4 45
e 4 47
e 4 51
e 4 57
e 4 61
e 4 64
e 4 69
e 4 73
e 4 75
e 4 77
e 4 79
e 4 80
e 4 92
e 4 94
e 4 99
e 5 6
e 5 11
e 5 13
e 5 14
e 5 22
e 5 24
e 5 26
e 5 28
e 5 36
e 5 38
e 5 39
e 5 40
e 5 42
e 5 47
e 5 49
e 5 59
e 5 62
e 5 63
e 5 64
e 5 65
e 5 68
e 5 70
e 5 73
e 5 76
e 5 77
e 5 79
e 5 81
e 5 87
e 5 90
e 5 95
e 5 96
e 5 97
e 6 12
e 6 14
e 6 15
e 6 17
e 6 19
e 6 22
e 6 31
e 6 35
e 6 38
e 6 44
e 6 47
e 6 48
e 6 50
e 6 54
e 6 59
e 6 61
e 6 62
e 6 63
e 6 68
e 6 70
e 6 71
e 6 72
e 6 73
e 6 76
e 6 78
e 6 79
e 6 80
e 6 81
e 6 84
e 6 87
e 6 92
e 6 94
e 6 95
e 6 100
e 7 8
e 7 11
e 7 12
e 7 14
e 7 15
e 7 17
e 7 25
e 7 27
e 7 28
e 7 29
e 7 30
e 7 31
e 7 33
e 7 34
e 7 38
e 7 42
e 7 44
e 7 45
e 7 46
e 7 49
e 7 50
e 7 54
e 7 55
e 7 57
e 7 60
e 7 66
e 7 75
e 7 78
e 7 79
e 7 82
e 7 88
e 7 89
e 7 90
e 7 92
e 7 96
e 7 97
e 7 99
e 7 100
e 8 10
e 8 11
e 8 17
e 8 19
e 8 23
e 8 28
e 8 33
e 8 38
e 8 42
e 8 51
e 8 54
e 8 56
e 8 59
e 8 61
e 8 62
e 8 63
e 8 66
e 8 67
e 8 68
e 8 78
e 8 89
e 8 92
e 8 94
e 9 14
e 9 17
e 9 21
e 9 22
e 9 23
e 9 24
e 9 27
e 9 34
e 9 35
e 9 37
e 9 38
e 9 42
e 9 47
e 9 50
e 9 53
e 9 57
e 9 58
e 9 59
e 9 65
e 9 66
e 9 69
e 9 72
e 9 77
e 9 86
e 9 90
e 9 94
e 9 97
e 9 100
e 10 11
e 10 13
e 10 14
e 10 17
e 10 21
e 10 22
e 10 26
e 10 31
e 10 37
e 10 38
e 10 39
e 10 41
e 10 43
e 10 46
e 10 51
e 10 57
e 10 60
e 10 62
e 10 67
e 10 71
e 10 76
e 10 77
e 10 83
e 10 85
e 10 86
e 10 88
e 10 92
e 10 95
e 10 99
e 11 13
e 11 16
e 11 21
e 11 26
e 11 27
e 11 28
e 11 33
e 11 35
e 11 36
e 11 43
e 11 47
e 11 48
e 11 51
e 11 54
e 11 58
e 11 74
e 11 75
e 11 78
e 11 82
e 11 84
e 11 88
e 11 91
e 12 13
e 12 14
e 12 15
e 12 17
e 12 22
e 12 23
e 12 30
e 12 34
e 12 43
e 12 46
e 12 51
e 12 52
e 12 53
e 12 54
e 12 58
e 12 61
e 12 63
e 12 69
e 12 70
e 12 78
e 12 82
e 12 85
e 12 86
e 12 87
e 12 92
e 12 93
e 12 96
e 12 97
e 12 99
e 12 100
e 13 15
e 13 16
e 13 19
e 13 22
e 13 25
e 13 26
e 13 31
e 13 32
e 13 33
e 13 35
e 13 40
e 13 44
e 13 46
e 13 50
e 13 51
e 13 54
e 13 60
e 13 61
e 13 65
e 13 66
e 13 67
e 13 69
e 13 70
e 13 75
e 13 76
e 13 78
e 13 80
e 13 83
e 13 86
e 13 88
e 13 91
e 13 93
e 13 94
e 13 97
e 13 99
e 14 17
e 14 19
e 14 20
e 14 21
e 14 27
e 14 32
e 14 34
e 14 38
e 14 43
e 14 46
e 14 52
e 14 55
e 14 57
e 14 64
e 14 65
e 14 67
e 14 68
e 14 71
e 14 73
e 14 74
e 14 76
e 14 78
e 14 79
e 14 81
e 14 83
e 14 90
e 14 91
e 14 92
e 14 93
e 14 96
e 14 99
e 15 19
e 15 20
e 15 21
e 15 22
e 15 26
e 15 29
e 15 30
e 15 33
e 15 37
e 15 40
e 15 42
e 15 48
e 15 51
e 15 56
e 15 62
e 15 69
e 15 71
e 15 72
e 15 73
e 15 76
e 15 78
e 15 80
e 15 85
e 15 89
e 15 90
e 15 98
e 16 17
e 16 18
e 16 19
e 16 26
e 16 30
e 16 34
e 16 40
e 16 50
e 16 60
e 16 66
e 16 69
e 16 72
e 16 76
e 16 77
e 16 78
e 16 81
e 16 83
e 16 85
e 16 89
e 16 95
e 16 98
e 17 18
e 17 20
e 17 21
e 17 22
e 17 25
e 17 26
e 17 35
e 17 46
e 17 50
e 17 55
e 17 59
e 17 60
e 17 63
e 17 69
e 17 70
e 17 72
e 17 81
e 17 85
e 17 87
e 17 93
e 18 19
e 18 21
e 18 22
e 18 28
e 18 30
e 18 33
e 18 36
e 18 46
e 18 49
e 18 50
e 18 53
e 18 63
e 18 68
e 18 69
e 18 79
e 18 80
e 18 86
e 18 88
e 18 90
e 18 91
e 18 93
e 18 97
e 18 98
e 19 20
e 19 21
e 19 22
e 19 25
e 19 27
e 19 28
e 19 30
e 19 33
e 19 37
e 19 40
e 19 49
e 19 52
e 19 54
e 19 58
e 19 62
e 19 63
e 19 64
e 19 65
e 19 69
e 19 71
e 19 75
e 19 80
e 19 88
e 19 90
e 19 92
e 19 96
e 19 99
e 20 24
e 20 28
e 20 30
e 20 31
e 20 33
e 20 35
e 20 38
e 20 40
e 20 44
e 20 47
e 20 51
e 20 53
e 20 60
e 20 61
e 20 64
e 20 66
e 20 67
e 20 68
e 20 69
e 20 70
e 20 74
e 20 79
e 20 81
e 20 82
e 20 84
e 20 85
e 20 89
e 20 95
e 20 97
e 20 98
e 20 99
e 20 100
e 21 24
e 21 27
e 21 28
e 21 31
e 21 32
e 21 34
e 21 36
e 21 38
e 21 40
e 21 48
e 21 50
e 21 51
e 21 52
e 21 56
e 21 70
e 21 72
e 21 75
e 21 78
e 21 83
e 21 87
e 21 90
e 21 93
e 21 95
e 22 28
e 22 29
e 22 30
e 22 38
e 22 40
e 22 44
e 22 45
e 22 47
e 22 50
e 22 52
e 22 54
e 22 55
e 22 61
e 22 63
e 22 68
e 22 70
e 22 71
e 22 73
e 22 75
e 22 78
e 22 79
e 22 80
e 22 83
e 22 89
e 22 91
e 22 92
e 22 95
e 22 98
e 23 24
e 23 26
e 23 30
e 23 32
e 23 33
e 23 34
e 23 39
e 23 40
e 23 45
e 23 54
e 23 63
e 23 64
e 23 67
e 23 68
e 23 70
e 23 72
e 23 76
e 23 78
e 23 81
e 23 84
e 23 95
e 23 96
e 23 98
e 23 100
e 24 25
e 24 31
e 24 33
e 24 36
e 24 39
e 24 42
e 24 46
e 24 47
e 24 48
e 24 49
e 24 52
e 24 54
e 24 59
e 24 61
e 24 66
e 24 67
e 24 68
e 24 74
e 24 76
e 24 77
e 24 79
e 24 80
e 24 83
e 24 86
e 24 89
e 24 97
e 25 30
e 25 32
e 25 37
e 25 39
e 25 41
e 25 57
e 25 59
e 25 66
e 25 69
e 25 73
e 25 75
e 25 76
e 25 77
e 25 78
e 25 80
e 25 82
e 25 83
e 25 88
e 25 89
e 25 96
e 25 97
e 26 29
e 26 36
e 26 38
e 26 41
e 26 46
e 26 47
e 26 49
e 26 56
e 26 58
e 26 59
e 26 64
e 26 65
e 26 67
e 26 68
e 26 70
e 26 73
e 26 76
e 26 84
e 26 85
e 26 89
e 26 90
e 26 96
e 27 28
e 27 29
e 27 30
e 27 38
e 27 39
e 27 45
e 27 49
e 27 51
e 27 52
e 27 53
e 27 54
e 27 55
e 27 58
e 27 65
e 27 67
e 27 72
e 27 76
e 27 82
e 27 85
e 27 94
e 27 96
e 27 98
e 28 38
e 28 40
e 28 42
e 28 49
e 28 56
e 28 62
e 28 63
e 28 65
e 28 74
e 28 75
e 28 79
e 28 82
e 28 86
e 28 87
e 28 89
e 28 90
e 28 94
e 28 95
e 28 97
e 28 99
e 29 30
e 29 31
e 29 32
e 29 38
e 29 39
e 29 42
e 29 44
e 29 46
e 29 47
e 29 53
e 29 55
e 29 57
e 29 63
e 29 64
e 29 66
e 29 67
e 29 70
e 29 73
e 29 75
e 29 76
e 29 77
e 29 81
e 29 84
e 29 86
e 29 88
e 29 89
e 29 91
e 30 33
e 30 34
e 30 35
e 30 38
e 30 44
e 30 47
e 30 51
e 30 52
e 30 54
e 30 55
e 30 56
e 30 58
e 30 63
e 30 71
e 30 84
e 30 85
e 30 87
e 30 91
e 30 96
e 31 34
e 31 35
e 31 36
e 31 43
e 31 45
e 31 47
e 31 51
e 31 53
e 31 57
e 31 59
e 31 63
e 31 65
e 31 66
e 31 85
e 32 33
e 32 38
e 32 39
e 32 50
e 32 52
e 32 56
e 32 58
e 32 59
e 32 60
e 32 61
e 32 62
e 32 75
e 32 78
e 32 83
e 32 88
e 32 92
e 32 93
e 32 94
e 32 97
e 32 98
e 33 34
e 33 35
e 33 39
e 33 41
e 33 49
e 33 51
e 33 56
e 33 57
e 33 58
e 33 62
e 33 63
e 33 64
e 33 71
e 33 74
e 33 76
e 33 78
e 33 81
e 33 82
e 33 83
e 33 87
e 33 89
e 33 93
e 33 94
e 33 95
e 33 97
e 33 99
e 33 100
e 34 35
e 34 36
e 34 38
e 34 40
e 34 54
e 34 62
e 34 63
e 34 67
e 34 73
e 34 77
e 34 79
e 34 82
e 34 83
e 34 91
e 35 36
e 35 39
e 35 42
e 35 58
e 35 60
e 35 66
e 35 78
e 35 80
e 35 81
e 35 82
e 35 86
e 35 94
e 35 97
e 35 99
e 35 100
e 36 40
e 36 41
e 36 42
e 36 43
e 36 44
e 36 48
e 36 50
e 36 51
e 36 54
e 36 56
e 36 60
e 36 62
e 36 70
e 36 73
e 36 80
e 36 87
e 36 100
e 37 38
e 37 39
e 37 43
e 37 48
e 37 49
e 37 50
e 37 52
e 37 58
e 37 59
e 37 62
e 37 66
e 37 67
e 37 71
e 37 75
e 37 78
e 37 87
e 37 92
e 37 94
e 37 96
e 37 98
e 38 41
e 38 43
e 38 47
e 38 49
e 38 51
e 38 55
e 38 56
e 38 59
e 38 69
e 38 72
e 38 73
e 38 75
e 38 79
e 38 81
e 38 87
e 38 92
e 38 94
e 38 98
e 38 100
e 39 41
e 39 42
e 39 43
e 39 52
e 39 58
e 39 61
e 39 62
e 39 63
e 39 74
e 39 75
e 39 80
e 39 86
e 39 95
e 39 97
e 39 98
e 39 100
e 40 42
e 40 46
e 40 48
e 40 51
e 40 52
e 40 55
e 40 58
e 40 64
e 40 65
e 40 66
e 40 67
e 40 74
e 40 80
e 40 85
e 40 88
e 40 89
e 40 91
e 40 92
e 40 94
e 40 97
e 40 99
e 40 100
e 41 45
e 41 47
e 41 48
e 41 54
e 41 57
e 41 61
e 41 65
e 41 71
e 41 75
e 41 77
e 41 79
e 41 87
e 41 93
e 41 95
e 41 97
e 42 45
e 42 46
e 42 47
e 42 50
e 42 52
e 42 55
e 42 58
e 42 59
e 42 61
e 42 64
e 42 68
e 42 77
e 42 78
e 42 79
e 42 85
e 42 96
e 42 98
e 42 99
e 42 100
e 43 58
e 43 66
e 43 68
e 43 73
e 43 74
e 43 75
e 43 77
e 43 78
e 43 80
e 43 83
e 44 48
e 44 50
e 44 51
e 44 58
e 44 60
e 44 62
e 44 65
e 44 66
e 44 67
e 44 77
e 44 78
e 44 79
e 44 80
e 44 82
e 44 83
e 44 84
e 44 94
e 44 96
e 44 97
e 45 49
e 45 51
e 45 54
e 45 59
e 45 62
e 45 73
e 45 77
e 45 80
e 45 86
e 45 88
e 46 58
e 46 61
e 46 62
e 46 64
e 46 65
e 46 68
e 46 69
e 46 72
e 46 74
e 46 81
e 46 93
e 46 95
e 47 51
e 47 52
e 47 55
e 47 56
e 47 66
e 47 68
e 47 73
e 47 81
e 47 82
e 47 84
e 47 86
e 47 87
e 47 91
e 47 95
e 47 98
e 48 49
e 48 50
e 48 53
e 48 57
e 48 58
e 48 59
e 48 62
e 48 63
e 48 67
e 48 71
e 48 75
e 48 77
e 48 91
e 48 99
e 48 100
e 49 56
e 49 58
e 49 59
e 49 62
e 49 63
e 49 66
e 49 67
e 49 71
e 49 73
e 49 74
e 49 75
e 49 78
e 49 79
e 49 81
e 49 83
e 49 84
e 49 86
e 49 87
e 49 89
e 49 96
e 49 100
e 50 52
e 50 53
e 50 54
e 50 62
e 50 67
e 50 76
e 50 84
e 50 86
e 50 87
e 50 94
e 50 96
e 51 53
e 51 54
e 51 56
e 51 67
e 51 68
e 51 69
e 51 86
e 51 89
e 51 90
e 51 91
e 51 97
e 52 58
e 52 60
e 52 66
e 52 67
e 52 72
e 52 74
e 52 75
e 52 78
e 52 79
e 52 81
e 52 82
e 52 85
e 52 86
e 52 89
e 52 90
e 52 91
e 52 95
e 52 98
e 52 99
e 52 100
e 53 56
e 53 58
e 53 61
e 53 62
e 53 65
e 53 67
e 53 68
e 53 72
e 53 77
e 53 84
e 53 85
e 53 87
e 53 88
e 53 90
e 53 91
e 54 56
e 54 57
e 54 58
e 54 61
e 54 64
e 54 65
e 54 77
e 54 79
e 54 80
e 54 81
e 54 82
e 54 86
e 54 89
e 54 96
e 54 98
e 55 64
e 55 80
e 55 85
e 55 88
e 55 89
e 55 92
e 56 59
e 56 61
e 56 65
e 56 66
e 56 68
e 56 69
e 56 74
e 56 75
e 56 79
e 56 80
e 56 81
e 56 83
e 56 84
e 56 89
e 56 93
e 56 95
e 56 96
e 56 97
e 57 59
e 57 61
e 57 62
e 57 69
e 57 70
e 57 71
e 57 75
e 57 76
e 57 79
e 57 83
e 57 84
e 57 85
e 57 87
e 57 88
e 57 92
e 57 97
e 57 100
e 58 61
e 58 62
e 58 63
e 58 64
e 58 71
e 58 82
e 58 84
e 58 85
e 58 88
e 58 89
e 58 92
e 58 93
e 58 95
e 59 60
e 59 61
e 59 65
e 59 67
e 59 72
e 59 77
e 59 78
e 59 80
e 59 81
e 59 84
e 59 85
e 59 88
e 59 99
e 60 66
e 60 67
e 60 70
e 60 71
e 60 73
e 60 74
e 60 75
e 60 88
e 60 96
e 60 97
e 60 100
e 61 65
e 61 67
e 61 71
e 61 73
e 61 78
e 61 81
e 61 84
e 61 90
e 61 95
e 61 98
e 62 65
e 62 66
e 62 68
e 62 70
e 62 77
e 62 82
e 62 84
e 62 85
e 62 86
e 62 95
e 62 98
e 63 66
e 63 69
e 63 72
e 63 73
e 63 79
e 63 81
e 63 82
e 63 86
e 63 88
e 63 92
e 63 93
e 63 95
e 63 98
e 63 99
e 64 70
e 64 71
e 64 75
e 64 81
e 64 82
e 64 84
e 64 87
e 64 88
e 64 89
e 65 72
e 65 76
e 65 77
e 65 78
e 65 86
e 65 87
e 65 88
e 65 94
e 65 99
e 66 70
e 66 73
e 66 79
e 66 84
e 67 68
e 67 77
e 67 79
e 67 82
e 67 83
e 67 84
e 67 86
e 68 74
e 68 79
e 68 82
e 68 84
e 68 85
e 68 89
e 68 93
e 68 98
e 68 99
e 69 74
e 69 77
e 69 80
e 69 81
e 69 84
e 69 87
e 69 90
e 69 93
e 69 96
e 69 98
e 69 100
e 70 74
e 70 79
e 70 80
e 70 81
e 70 85
e 70 86
e 70 96
e 71 78
e 71 81
e 71 95
e 72 75
e 72 76
e 72 85
e 72 86
e 72 89
e 72 90
e 72 94
e 72 95
e 72 98
e 72 100
e 73 85
e 73 88
e 73 100
e 74 77
e 74 83
e 74 85
e 74 86
e 74 87
e 74 89
e 74 91
e 74 93
e 74 97
e 74 100
e 75 77
e 75 85
e 75 90
e 75 92
e 75 96
e 75 97
e 76 89
e 76 91
e 76 92
e 77 85
e 77 86
e 77 87
e 77 94
e 78 82
e 78 85
e 78 87
e 78 89
e 78 92
e 78 94
e 78 97
e 78 99
e 78 100
e 79 80
e 79 86
e 79 87
e 79 89
e 79 91
e 79 93
e 79 98
e 79 99
e 80 85
e 80 87
e 80 90
e 80 94
e 80 99
e 81 83
e 81 85
e 81 86
e 81 87
e 81 94
e 81 97
e 82 83
e 82 87
e 82 88
e 82 97
e 82 98
e 82 99
e 83 85
e 83 87
e 83 92
e 83 95
e 84 85
e 84 88
e 85 86
e 85 87
e 85 90
e 85 98
e 86 87
e 86 90
e 86 91
e 86 95
e 86 98
e 86 99
e 87 91
e 87 97
e 88 91
e 88 93
e 88 96
e 88 97
e 89 94
e 89 95
e 89 98
e 89 100
e 90 95
e 90 96
e 90 97
e 91 94
e 91 97
e 91 99
e 92 94
e 92 95
e 92 96
e 92 97
e 92 98
e 92 99
e 93 95
e 94 95
e 94 96
e 95 96
e 95 97
e 96 97
e 97 99
e 98 99
e 98 100
e 99 100
